unsat
((<= -100 (* -1 x_1))
 (<= -111 (* -1 xm1))
 (<= -101 (+ (* -1 xm1) x2 (* -1 res4)))
 (<= -101 (* -1 resm5))
 (<= -101 (* -1 xm6))
 (and (<= 91 res9) (<= -91 (+ (* -1 xm6) x7 (* -1 res9))))
 (and (<= 91 resm10) (<= -91 (* -1 resm10)))
 (and (<= 91 res11) (<= -91 (* -1 res11))))
